peakDumbCharging = 22200; 
Machine = anon_enum(16); 
machineSpeed = [3700,3700,3700,3700,3700,3700,3700,3700,3700,3700,3700,3700,3700,3700,3700,3700]; 
machineLoad = [3700,3700,3700,3700,3700,3700,3700,3700,3700,3700,3700,3700,3700,3700,3700,3700]; 
Car = anon_enum(30); 
demandCar = [160,880,920,5000,1960,2960,13720,5440,38440,19080,8680,6000,24600,3520,5560,11840,6880,8400,4320,5640,120,14320,5880,10760,7160,58600,31560,10520,16760,13000]; 
arrivalCar = [70,70,70,69,69,65,63,61,59,59,58,57,56,49,47,46,43,42,41,40,39,37,36,33,33,26,25,25,24,23]; 
departureCar = [71,78,71,72,72,68,74,66,73,67,65,63,74,55,50,51,47,48,43,44,40,43,41,41,38,55,55,30,30,60]; 
